Route #1: 1 12 2 19 20 14 17 9 11 27 3 1 
Route #2: 1 1 21 16 7 33 5 22 10 23 24 1 
Route #3: 1 13 29 28 31 18 35 26 30 34 15 1 
Route #4: 1 8 25 32 36 4 1 
Route #5: 1 6 1 

Cost 958.411
Time 0.2152


 * Another infos *

 Iterations: 37 Time: 0.2152 sec - 0.0036 min - 0.0001 horas
0.0000 h 0.0036 min
Problem dimension: 37
